Route 1: 4 154 92 142 153 47 6 28 163 49 14 63 149 120 135 5 197 162 132 78 171 130 187 150 174 97 113 176 191 134 58 69 144 71 88 87 121 115 11 17 82 66 9 12 139 33 177 151 157 32 117 81 173 29 89 30 64 67 19
Route 2: 140 54 48 131 156 152 167 51 15 7 68 124 24 196 190 180 43 184 3 136 72 27 91 198 111 103 44 95 90 145 194 79 178 73 13 96 8 2 34 76 60 1 141 122 10 185 148 75 175 74
Route 3: 42 169 133 147 31 40 98 61 160 94 52 112 109 114 86 125 101 106 192 137 123 193 119 116 39 146 83
Route 4: 100 199 84 172 181 62 35 164 104 170 25 26 46 159 77 20 138 186 55 107 179 126 110 165 161
Route 5: 200 93 182 57 85 155 127 118 105 23 188 166 189 129 183 18 65 41
Route 6: 37 45 143 59 128 108 56 168 99 53 38 80 21 195 16 22 102 50 158 70 36
Vehicles: 6
Distance: 6084.61
